# Mass
mass 1 15.9994 # H2O O
mass 2 1.008 # H2O H

# Pair Coeff
pair_coeff 1 1 0.1550 3.1536 # H2O - TIP4P
pair_coeff 2 2 0.0 1.0 # H2O H


# Bond coeff
bond_coeff 1 0.9572 # H2O O-H

# Angle coeff
angle_coeff 1 104.52 # H2O H-O-H

# Charge
set type 1 charge -1.040
set type 2 charge  0.520

special_bonds lj/coul 0.0 0.0 0.0